c Created with the Wolfram Language : www.wolfram.com
c 
p edge 80 638
e 1 3
e 3 5
e 4 5
e 3 6
e 1 7
e 6 8
e 8 9
e 7 10
e 9 10
e 1 11
e 4 11
e 6 11
e 1 12
e 2 12
e 6 12
e 6 14
e 11 14
e 1 15
e 7 15
e 8 15
e 9 15
e 12 15
e 6 16
e 2 17
e 3 17
e 11 17
e 12 18
e 15 18
e 16 18
e 3 19
e 4 19
e 5 19
e 8 19
e 13 19
e 16 19
e 18 19
e 2 20
e 5 20
e 6 20
e 15 20
e 2 21
e 6 21
e 7 21
e 8 21
e 20 21
e 3 22
e 4 22
e 15 22
e 16 22
e 19 22
e 7 23
e 13 23
e 20 23
e 21 23
e 22 23
e 5 24
e 6 24
e 10 24
e 14 24
e 1 25
e 6 25
e 9 25
e 10 25
e 12 25
e 16 25
e 19 25
e 22 25
e 7 26
e 9 26
e 12 26
e 14 26
e 15 26
e 18 26
e 19 26
e 21 26
e 22 26
e 5 27
e 7 27
e 11 27
e 14 27
e 18 27
e 19 27
e 26 27
e 10 28
e 13 28
e 14 28
e 22 28
e 25 28
e 7 29
e 11 29
e 17 29
e 20 29
e 21 29
e 26 29
e 9 30
e 13 30
e 14 30
e 17 30
e 19 30
e 20 30
e 23 30
e 8 31
e 22 31
e 26 31
e 4 32
e 5 32
e 13 32
e 20 32
e 29 32
e 1 33
e 4 33
e 7 33
e 11 33
e 12 33
e 15 33
e 17 33
e 19 33
e 26 33
e 30 33
e 8 34
e 10 34
e 12 34
e 16 34
e 29 34
e 31 34
e 32 34
e 17 35
e 25 35
e 34 35
e 7 36
e 11 36
e 13 36
e 27 36
e 31 36
e 5 37
e 15 37
e 33 37
e 1 38
e 3 38
e 9 38
e 11 38
e 18 38
e 27 38
e 29 38
e 31 38
e 1 39
e 11 39
e 19 39
e 25 39
e 31 39
e 34 39
e 8 40
e 17 40
e 21 40
e 27 40
e 28 40
e 9 41
e 11 41
e 12 41
e 16 41
e 19 41
e 31 41
e 34 41
e 39 41
e 1 42
e 2 42
e 5 42
e 7 42
e 10 42
e 12 42
e 16 42
e 19 42
e 20 42
e 23 42
e 28 42
e 39 42
e 41 42
e 1 43
e 3 43
e 8 43
e 18 43
e 21 43
e 23 43
e 24 43
e 33 43
e 5 44
e 9 44
e 13 44
e 31 44
e 42 44
e 1 45
e 22 45
e 30 45
e 34 45
e 43 45
e 2 46
e 7 46
e 15 46
e 26 46
e 38 46
e 41 46
e 6 47
e 8 47
e 14 47
e 16 47
e 17 47
e 18 47
e 22 47
e 36 47
e 37 47
e 39 47
e 41 47
e 45 47
e 4 48
e 5 48
e 15 48
e 18 48
e 26 48
e 34 48
e 39 48
e 40 48
e 2 49
e 11 49
e 13 49
e 15 49
e 19 49
e 21 49
e 25 49
e 32 49
e 35 49
e 47 49
e 3 50
e 6 50
e 7 50
e 8 50
e 9 50
e 10 50
e 12 50
e 16 50
e 23 50
e 27 50
e 30 50
e 31 50
e 48 50
e 2 51
e 10 51
e 11 51
e 17 51
e 21 51
e 31 51
e 34 51
e 37 51
e 38 51
e 44 51
e 50 51
e 8 52
e 9 52
e 10 52
e 11 52
e 16 52
e 18 52
e 26 52
e 29 52
e 36 52
e 43 52
e 6 53
e 7 53
e 8 53
e 28 53
e 30 53
e 37 53
e 38 53
e 45 53
e 46 53
e 48 53
e 1 54
e 7 54
e 10 54
e 18 54
e 20 54
e 46 54
e 49 54
e 50 54
e 52 54
e 1 55
e 2 55
e 3 55
e 15 55
e 16 55
e 21 55
e 28 55
e 31 55
e 33 55
e 35 55
e 41 55
e 42 55
e 50 55
e 3 56
e 12 56
e 20 56
e 22 56
e 29 56
e 34 56
e 40 56
e 6 57
e 7 57
e 15 57
e 25 57
e 33 57
e 36 57
e 39 57
e 41 57
e 44 57
e 55 57
e 1 58
e 10 58
e 12 58
e 13 58
e 16 58
e 19 58
e 26 58
e 32 58
e 34 58
e 35 58
e 46 58
e 51 58
e 55 58
e 4 59
e 9 59
e 10 59
e 22 59
e 23 59
e 24 59
e 25 59
e 26 59
e 30 59
e 13 60
e 19 60
e 22 60
e 26 60
e 28 60
e 29 60
e 34 60
e 39 60
e 49 60
e 50 60
e 15 61
e 17 61
e 20 61
e 21 61
e 27 61
e 29 61
e 31 61
e 32 61
e 42 61
e 43 61
e 45 61
e 49 61
e 52 61
e 55 61
e 57 61
e 12 62
e 14 62
e 31 62
e 33 62
e 37 62
e 38 62
e 42 62
e 45 62
e 50 62
e 57 62
e 1 63
e 2 63
e 3 63
e 6 63
e 9 63
e 17 63
e 18 63
e 25 63
e 38 63
e 44 63
e 46 63
e 51 63
e 57 63
e 4 64
e 7 64
e 9 64
e 10 64
e 19 64
e 30 64
e 31 64
e 32 64
e 38 64
e 39 64
e 40 64
e 47 64
e 58 64
e 2 65
e 8 65
e 19 65
e 28 65
e 45 65
e 46 65
e 47 65
e 50 65
e 51 65
e 52 65
e 57 65
e 60 65
e 2 66
e 7 66
e 12 66
e 18 66
e 29 66
e 33 66
e 34 66
e 39 66
e 40 66
e 41 66
e 49 66
e 51 66
e 53 66
e 55 66
e 59 66
e 64 66
e 13 67
e 19 67
e 21 67
e 22 67
e 23 67
e 26 67
e 30 67
e 33 67
e 38 67
e 41 67
e 53 67
e 58 67
e 5 68
e 8 68
e 11 68
e 12 68
e 18 68
e 20 68
e 22 68
e 24 68
e 28 68
e 30 68
e 31 68
e 32 68
e 34 68
e 35 68
e 36 68
e 38 68
e 44 68
e 46 68
e 49 68
e 56 68
e 64 68
e 2 69
e 6 69
e 14 69
e 37 69
e 38 69
e 50 69
e 52 69
e 61 69
e 62 69
e 64 69
e 65 69
e 67 69
e 2 70
e 5 70
e 10 70
e 12 70
e 22 70
e 24 70
e 30 70
e 40 70
e 41 70
e 45 70
e 49 70
e 54 70
e 55 70
e 60 70
e 66 70
e 68 70
e 7 71
e 9 71
e 12 71
e 28 71
e 30 71
e 31 71
e 34 71
e 39 71
e 42 71
e 43 71
e 44 71
e 50 71
e 51 71
e 58 71
e 62 71
e 70 71
e 12 72
e 15 72
e 21 72
e 23 72
e 29 72
e 30 72
e 37 72
e 42 72
e 52 72
e 65 72
e 68 72
e 1 73
e 5 73
e 8 73
e 13 73
e 18 73
e 28 73
e 33 73
e 42 73
e 46 73
e 55 73
e 56 73
e 57 73
e 58 73
e 61 73
e 64 73
e 65 73
e 71 73
e 10 74
e 11 74
e 12 74
e 25 74
e 35 74
e 42 74
e 46 74
e 48 74
e 51 74
e 56 74
e 58 74
e 69 74
e 70 74
e 4 75
e 9 75
e 14 75
e 15 75
e 16 75
e 19 75
e 21 75
e 26 75
e 29 75
e 33 75
e 35 75
e 37 75
e 40 75
e 44 75
e 49 75
e 50 75
e 59 75
e 62 75
e 67 75
e 5 76
e 9 76
e 10 76
e 17 76
e 24 76
e 30 76
e 45 76
e 51 76
e 55 76
e 24 77
e 26 77
e 34 77
e 35 77
e 40 77
e 44 77
e 46 77
e 47 77
e 48 77
e 49 77
e 50 77
e 51 77
e 53 77
e 54 77
e 55 77
e 72 77
e 76 77
e 2 78
e 12 78
e 14 78
e 16 78
e 22 78
e 25 78
e 33 78
e 40 78
e 50 78
e 51 78
e 56 78
e 59 78
e 62 78
e 67 78
e 72 78
e 73 78
e 77 78
e 2 79
e 6 79
e 9 79
e 10 79
e 14 79
e 23 79
e 31 79
e 42 79
e 44 79
e 48 79
e 53 79
e 61 79
e 62 79
e 75 79
e 76 79
e 77 79
e 8 80
e 14 80
e 15 80
e 32 80
e 39 80
e 40 80
e 43 80
e 45 80
e 49 80
e 50 80
e 51 80
e 52 80
e 66 80
e 68 80
e 71 80
e 77 80
e 79 80
